NAME : portgen-35-37662
COMMENT : portgen N=35, seed=37662
TYPE : TSP
DIMENSION : 35
EDGE_WEIGHT_TYPE : EUC_2D
NODE_COORD_SECTION
1 934993 403293
2 342430 884264
3 272940 168238
4 428550 479510
5 461483 402707
6 982174 22444
7 752445 221805
8 274680 208067
9 651678 260043
10 95443 496624
11 880587 906526
12 249772 510114
13 290796 68354
14 901582 749714
15 594220 854411
16 426469 779795
17 114123 120221
18 131887 533002
19 855023 827770
20 134199 743123
21 448244 377544
22 112605 105382
23 404117 523502
24 805177 111500
25 324206 988501
26 775857 620033
27 344544 533819
28 18043 155197
29 289170 222208
30 752377 739938
31 313214 600779
32 345310 718359
33 954463 604630
34 909839 647063
35 817688 751178
